gen cost
0 1464
1 1455
2 1443
3 1395
4 1360
5 1355
6 1347
7 1341
8 1336
9 1330
10 1323
11 1310
12 1283
13 1248
14 1247
15 1226
16 1219
17 1214
18 1210
19 1201
20 1195
21 1192
22 1183
23 1179
24 1176
25 1157
26 1157
27 1153
28 1146
29 1142
30 1142
31 1131
32 1131
33 1128
34 1128
35 1127
36 1127
37 1125
38 1124
39 1122
40 1122
41 1119
42 1119
43 1118
44 1118
45 1115
46 1115
47 1115
48 1115
49 1115
